28 10000
30 386
44 2714
98 1423
43 9059
75 6663
78 6396
84 7992
99 7189
65 8430
44 696
5 6748
96 7718
93 6637
49 9662
87 811
5 688
38 3620
75 9152
91 3969
4 3761
56 3768
82 7662
67 7433
86 3171
9 8304
59 7594
77 7655
90 837
